CapLotSizing_PM/src/Instancias/TCLSHT/6i12p4m/NBA08.OUT
 CG ITER, OVMR, OVMRUB =           1   13877.0781250   13361.8984375
 CG ITER, OVMR, OVMRUB =           2   13361.8984375   13361.8984375
 CG ITER, OVMR, OVMRUB =           3   12485.9775391   13298.3789062
 CG ITER, OVMR, OVMRUB =           4   11451.5898438   13298.3789062
 CG ITER, OVMR, OVMRUB =           5   11318.6689453   13298.3789062
 CG ITER, OVMR, OVMRUB =           6   10723.8916016   13298.3789062
 CG ITER, OVMR, OVMRUB =           7   10876.8583984   13298.3789062
 CG ITER, OVMR, OVMRUB =           8   10954.9882812   13298.3789062
 CG ITER, OVMR, OVMRUB =           9   11020.7597656   12997.4667969
 CG ITER, OVMR, OVMRUB =          10   11077.7285156   12905.7617188
 CG ITER, OVMR, OVMRUB =          11   11136.3359375   12905.7617188
 CG ITER, OVMR, OVMRUB =          12   11182.1777344   12905.7617188
 CG ITER, OVMR, OVMRUB =          13   11251.1933594   12905.7617188
 CG ITER, OVMR, OVMRUB =          14   11302.3037109   12905.7617188
 CG ITER, OVMR, OVMRUB =          15   11353.1767578   12905.7617188
 CG ITER, OVMR, OVMRUB =          16   11407.2968750   12905.7617188
 CG ITER, OVMR, OVMRUB =          17   11455.4960938   12905.7617188
 CG ITER, OVMR, OVMRUB =          18   11506.2792969   12905.7617188
 CG ITER, OVMR, OVMRUB =          19   11547.0078125   12905.7617188
 CG ITER, OVMR, OVMRUB =          20   11583.3427734   12905.7617188
 CG ITER, OVMR, OVMRUB =          21   11620.8876953   12905.7617188
 CG ITER, OVMR, OVMRUB =          22   11657.0078125   12905.7617188
 CG ITER, OVMR, OVMRUB =          23   11694.0117188   12905.7617188
 CG ITER, OVMR, OVMRUB =          24   11729.4882812   12905.7617188
 CG ITER, OVMR, OVMRUB =          25   11757.4677734   12905.7617188
 CG ITER, OVMR, OVMRUB =          26   11790.9492188   12905.7617188
 CG ITER, OVMR, OVMRUB =          27   11818.5039062   12905.7617188
 CG ITER, OVMR, OVMRUB =          28   11846.1250000   12905.7617188
 CG ITER, OVMR, OVMRUB =          29   11873.5468750   12905.7617188
 CG ITER, OVMR, OVMRUB =          30   11898.5029297   12905.7617188
 CG ITER, OVMR, OVMRUB =          31   11927.1787109   12905.7617188
 CG ITER, OVMR, OVMRUB =          32   11956.6894531   12905.7617188
 CG ITER, OVMR, OVMRUB =          33   11986.0585938   12905.7617188
 CG ITER, OVMR, OVMRUB =          34   12008.3779297   12905.7617188
 CG ITER, OVMR, OVMRUB =          35   12033.0351562   12905.7617188
 CG ITER, OVMR, OVMRUB =          36   12054.8271484   12905.7617188
 CG ITER, OVMR, OVMRUB =          37   12076.2294922   12905.7617188
 CG ITER, OVMR, OVMRUB =          38   12094.9121094   12905.7617188
 CG ITER, OVMR, OVMRUB =          39   12114.2070312   12905.7617188
 CG ITER, OVMR, OVMRUB =          40   12132.7919922   12905.7617188
 CG ITER, OVMR, OVMRUB =          41   12151.2402344   12905.7617188
 CG ITER, OVMR, OVMRUB =          42   12168.6953125   12905.7617188
 CG ITER, OVMR, OVMRUB =          43   12174.6992188   12905.7617188
 CG ITER, OVMR, OVMRUB =          44   12185.2187500   12905.7617188
 CG ITER, OVMR, OVMRUB =          45   12193.9697266   12905.7617188
 CG ITER, OVMR, OVMRUB =          46   12179.1650391   12905.7617188
 CG ITER, OVMR, OVMRUB =          47   12178.8183594   12905.7617188
 CG ITER, OVMR, OVMRUB =          48   12178.7675781   12905.7617188
 CG ITER, OVMR, OVMRUB =          49   12181.6962891   12905.7617188
 CG ITER, OVMR, OVMRUB =          50   12183.2314453   12905.7617188
 CG ITER, OVMR, OVMRUB =          51   12186.6943359   12905.7617188
 CG ITER, OVMR, OVMRUB =          52   12187.0625000   12905.7617188
 CG ITER, OVMR, OVMRUB =          53   12189.4316406   12905.7617188
 CG ITER, OVMR, OVMRUB =          54   12189.7392578   12905.7617188
 CG ITER, OVMR, OVMRUB =          55   12193.0654297   12905.7617188
 CG ITER, OVMR, OVMRUB =          56   12193.0654297   12905.7617188
OVLB =   12193.0654297 OVLUB =   12905.7617188 TIME =       4.4000001
